%%%mzn-stat: initTime=0.013018323
%%%mzn-stat: objective=365
%%%mzn-stat: nodes=12287
%%%mzn-stat: restarts=1
%%%mzn-stat: peakDepth=633
%%%mzn-stat: solveTime=3.783014364
%%%mzn-stat: variables=1642
%%%mzn-stat: propagators=1242
%%%mzn-stat: failures=10084
%%%mzn-stat: propagations=1177270
%%%mzn-stat: nogoods=10084
%%%mzn-stat: AverageConflictSize=41.951011503371674
%%%mzn-stat: NumUnitNogoodsLearned=249
%%%mzn-stat: AverageLearnedNogoodLength=108.23452994843316
%%%mzn-stat: AverageBacktrackAmount=0
%%%mzn-stat: AverageLbd=26.519238397461326
%%%mzn-stat-end
maxleg = 365;
succ = array1d(1..50,[14, 8, 40, 36, 46, 2, 43, 17, 13, 26, 6, 50, 45, 31, 33, 47, 28, 19, 27, 21, 42, 25, 10, 32, 35, 11, 37, 15, 30, 34, 16, 48, 41, 12, 4, 29, 7, 1, 24, 5, 38, 39, 49, 18, 20, 9, 22, 23, 3, 44]);
% time elapsed: 5.39 s
----------
%%%mzn-stat: initTime=0.013018323
%%%mzn-stat: objective=250
%%%mzn-stat: nodes=12886
%%%mzn-stat: restarts=1
%%%mzn-stat: peakDepth=633
%%%mzn-stat: solveTime=3.809620996
%%%mzn-stat: variables=1642
%%%mzn-stat: propagators=1242
%%%mzn-stat: failures=10158
%%%mzn-stat: propagations=1186129
%%%mzn-stat: nogoods=10158
%%%mzn-stat: AverageConflictSize=41.76127190391809
%%%mzn-stat: NumUnitNogoodsLearned=249
%%%mzn-stat: AverageLearnedNogoodLength=108.15652687536917
%%%mzn-stat: AverageBacktrackAmount=0
%%%mzn-stat: AverageLbd=26.52943492813546
%%%mzn-stat-end
maxleg = 250;
succ = array1d(1..50,[14, 8, 40, 36, 46, 2, 43, 17, 13, 26, 6, 9, 27, 31, 33, 47, 28, 44, 50, 21, 42, 25, 10, 32, 35, 11, 18, 15, 34, 45, 16, 48, 41, 12, 4, 29, 7, 1, 24, 5, 38, 39, 49, 19, 20, 30, 22, 23, 3, 37]);
% time elapsed: 5.41 s
----------
==========
% time elapsed: 5.41 s
%%%mzn-stat: initTime=0.013018323
%%%mzn-stat: objective=250
%%%mzn-stat: nodes=12886
%%%mzn-stat: restarts=1
%%%mzn-stat: peakDepth=633
%%%mzn-stat: solveTime=3.8096249540000002
%%%mzn-stat: variables=1642
%%%mzn-stat: propagators=1242
%%%mzn-stat: failures=10158
%%%mzn-stat: propagations=1186129
%%%mzn-stat: nogoods=10158
%%%mzn-stat: AverageConflictSize=41.76127190391809
%%%mzn-stat: NumUnitNogoodsLearned=249
%%%mzn-stat: AverageLearnedNogoodLength=108.15652687536917
%%%mzn-stat: AverageBacktrackAmount=0
%%%mzn-stat: AverageLbd=26.52943492813546
%%%mzn-stat-end
